dates = {'2022-04-03','2022-04-04','2022-04-05','2022-04-06','2022-04-07','2022-04-08','2022-04-09','2022-04-10','2022-04-11','2022-04-12','2022-04-13','2022-04-14','2022-04-15','2022-04-16','2022-04-17','2022-04-18','2022-04-19','2022-04-20','2022-04-21','2022-04-22','2022-04-23','2022-04-24','2022-04-25','2022-04-26','2022-04-27','2022-04-28','2022-04-29','2022-04-30','2022-05-01','2022-05-02','2022-05-03','2022-05-04','2022-05-05','2022-05-06','2022-05-07','2022-05-08','2022-05-09','2022-05-10','2022-05-11','2022-05-12','2022-05-13','2022-05-14','2022-05-15','2022-05-16','2022-05-17','2022-05-18','2022-05-19','2022-05-20','2022-05-21','2022-05-22','2022-05-23','2022-05-24','2022-05-25','2022-05-26','2022-05-27','2022-05-28','2022-05-29','2022-05-30','2022-05-31','2022-06-01'};

daysOfWeek = [Sunday,Monday,Tuesday,Wednesday,Thursday,Friday,Saturday,Sunday,Monday,Tuesday,Wednesday,Thursday,Friday,Saturday,Sunday,Monday,Tuesday,Wednesday,Thursday,Friday,Saturday,Sunday,Monday,Tuesday,Wednesday,Thursday,Friday,Saturday,Sunday,Monday,Tuesday,Wednesday,Thursday,Friday,Saturday,Sunday,Monday,Tuesday,Wednesday,Thursday,Friday,Saturday,Sunday,Monday,Tuesday,Wednesday,Thursday,Friday,Saturday,Sunday,Monday,Tuesday,Wednesday,Thursday,Friday,Saturday,Sunday,Monday,Tuesday,Wednesday];

% For this week, how many people will be here.
numPeople = [89,89,89,89,89,89,89,89,89,89,89,89,89,89,89,89,89,89,89,89,91,91,91,91
,91,40,40,40,40,40,40,40,40,40,40,40,25,25,25,25,25,25,25,25,25,25,25,25
,25,25,25,25,25,25,25,25,25,25,25,25];

% Physical workers need 50 to 100 % more nutrients per day.
numPhysicalWorkers = [21.0,21.0,21.0,21.0,21.0,21.0,21.0,21.0,21.0,21.0,21.0,21.0,21.0,21.0
,21.0,21.0,21.0,21.0,21.0,21.0,21.5,21.5,21.5,21.5,21.5,21.5,14.5,14.5
,14.5,14.5,14.5,14.5,14.5,14.5,14.5,14.5,14.5,13.0,13.0,13.0,13.0,13.0
,13.0,13.0,13.0,13.0,13.0,13.0,13.0,13.0,13.0,13.0,13.0,13.0,13.0,13.0
,13.0,13.0,13.0,13.0];

% Males need +25% more nutrients per day.
numMen = [75,75,75,75,75,75,75,75,75,75,75,75,75,75,75,75,75,75,75,75,76,76,76,76
,76,76,30,30,30,30,30,30,30,30,30,30,30,19,19,19,19,19,19,19,19,19,19,19
,19,19,19,19,19,19,19,19,19,19,19,19];

% Num people who do not eat categories. contains = {none, meat, milk, gluten, egg, nut, seed, sugars}
numRefusals = [| 0,6,9,8,12,18,0,0 | 0,6,9,8,12,18,0,0 | 0,6,9,8,12,18,0,0 | 0,6,9,8,12,18,0,0 | 0,6,9,8,12,18,0,0 | 0,6,9,8,12,18,0,0 | 0,6,9,8,12,18,0,0 | 0,6,9,8,12,18,0,0 | 0,6,9,8,12,18,0,0 | 0,6,9,8,12,18,0,0 | 0,6,9,8,12,18,0,0 | 0,6,9,8,12,18,0,0 | 0,6,9,8,12,18,0,0 | 0,6,9,8,12,18,0,0 | 0,6,9,8,12,18,0,0 | 0,6,9,8,12,18,0,0 | 0,6,9,8,12,18,0,0 | 0,6,9,8,12,18,0,0 | 0,6,9,8,12,18,0,0 | 0,6,9,8,12,18,0,0 | 0,5,0,0,14,0,3,18 | 0,5,0,0,14,0,3,18 | 0,5,0,0,14,0,3,18 | 0,5,0,0,14,0,3,18 | 0,5,0,0,14,0,3,18 | 0,0,1,0,0,10,2,1 | 0,0,1,0,0,10,2,1 | 0,0,1,0,0,10,2,1 | 0,0,1,0,0,10,2,1 | 0,0,1,0,0,10,2,1 | 0,0,1,0,0,10,2,1 | 0,0,1,0,0,10,2,1 | 0,0,1,0,0,10,2,1 | 0,0,1,0,0,10,2,1 | 0,0,1,0,0,10,2,1 | 0,0,1,0,0,10,2,1 | 0,0,0,4,0,0,1,0 | 0,0,0,4,0,0,1,0 | 0,0,0,4,0,0,1,0 | 0,0,0,4,0,0,1,0 | 0,0,0,4,0,0,1,0 | 0,0,0,4,0,0,1,0 | 0,0,0,4,0,0,1,0 | 0,0,0,4,0,0,1,0 | 0,0,0,4,0,0,1,0 | 0,0,0,4,0,0,1,0 | 0,0,0,4,0,0,1,0 | 0,0,0,4,0,0,1,0 | 0,0,0,4,0,0,1,0 | 0,0,0,4,0,0,1,0 | 0,0,0,4,0,0,1,0 | 0,0,0,4,0,0,1,0 | 0,0,0,4,0,0,1,0 | 0,0,0,4,0,0,1,0 | 0,0,0,4,0,0,1,0 | 0,0,0,4,0,0,1,0 | 0,0,0,4,0,0,1,0 | 0,0,0,4,0,0,1,0 | 0,0,0,4,0,0,1,0 | 0,0,0,4,0,0,1,0 |];

